10
15.0
0 1 1 2
0 2 5 2
0 3 1 2
0 4 1 2
0 5 4 2
0 6 5 2
0 7 2 2
0 8 3 2
0 9 4 2
1 2 1 2
1 3 3 2
1 4 3 2
1 5 4 2
1 6 1 2
1 7 3 2
1 8 5 2
1 9 2 2
2 3 2 2
2 4 5 2
2 5 1 2
2 6 5 2
2 7 4 2
2 8 4 2
2 9 1 2
3 4 2 2
3 5 3 2
3 6 1 2
3 7 1 2
3 8 4 2
3 9 2 2
4 5 2 2
4 6 4 2
4 7 5 2
4 8 3 2
4 9 5 2
5 6 2 2
5 7 2 2
5 8 4 2
5 9 4 2
6 7 5 2
6 8 1 2
6 9 3 2
7 8 3 2
7 9 3 2
8 9 5 2
